mode("multi").

day(1).
day(2).

student("theo_akkermann").
student("elias_alleweldt").
student("nahla_awlakpui").
student("marino_baer").
student("kasia_beck").
student("ilyas_bedoui").
student("adrian_behrendt").
student("emilia_bejnarowicz").
student("jonathan_bertram").
student("milan_bick").
student("tilda_blum").
student("luuk_bloß").
student("benjamin_bonhage").
student("wilma_bonk").
student("silas_bornmann").
student("jella_braune").
student("martino_bresadola banchelli").
student("leah_bui").
student("levi_caspary").
student("erik_crowley").
student("bedirhan_demircan").
student("grace_eckert-kok").
student("maria_el-faris").
student("mika_ernstmeier").
student("charlotte_eschen").
student("nauka_fiedler").
student("valentin_frenzel").
student("clara_freudigmann").
student("olivia_frey").
student("mona_gaiser").
student("marta_garcia de salazar martinez").
student("vincent_gaus").
student("selma_gerardu").
student("johann_giese").
student("antonin_glinka").
student("elias_gluzman").
student("david_grizmann").
student("vid_grochola").
student("pepe_h'lawatscheck").
student("melih_halicioglu").
student("aymen_hammami").
student("jonathan_hampf").
student("isidor_heinemann").
student("ivo_hennig-lee").
student("kuno_hennig-lee").
student("matilda_heyden").
student("amelie_hille").
student("amelie_hunefeld").
student("johann_jacobs").
student("ilsa_jahn").
student("valentin_jakovac").
student("fridolin_jann").
student("philina_kaufmann").
student("adah_keck").
student("tuana_kilinc").
student("maya_kim").
student("julius_kindhauser").
student("cleo_knoller").
student("johannes_kringel").
student("amelie_krzanowski").
student("ida_kunze").
student("levi_kupper").
student("tilda_kuttler").
student("maja_lehmann").
student("lilo_leipert").
student("hugo_ludwig espinosa").
student("nicolo_lustenberger").
student("aeneas_madenlis").
student("jakob_mathesius").
student("jakob_mathesius").
student("jakob_mathesius").
student("enno_meroth").
student("felix_meyer").
student("felix_meyer").
student("marthe_mittelstaedt").
student("jorin_mogge").
student("levi_morgenroth").
student("jonte_nagel").
student("steffen_nestle").
student("yuma_nguyen").
student("polly_orbitz").
student("jakob_paasch").
student("lionel_paulos nunes").
student("alice_pfisterer").
student("poul_phillips").
student("anna_pietzcker").
student("arthur_pitum").
student("henry_plieninger").
student("lukas_poppelbaum").
student("simon_reichert").
student("emil_rettig").
student("friedrich_riesenhuber").
student("kiana_rossi").
student("marla_ruppmann").
student("amalia_schiliro").
student("fanny_schlocker").
student("maja_schmeling").
student("milea_schmeling").
student("luise_schnabel").
student("lina_seitz").
student("lotta_seitz").
student("vito_seitz").
student("ananya_shreyas").
student("tilda_siegel").
student("zoe_simon-untz").
student("mina_sonnenburg").
student("lilo_stoff").
student("constantin_strangfeld").
student("zoe_sullivan").
student("aida_sy").
student("frederik_sokeland").
student("sophie_trefzer").
student("hermann-larson_tschanter").
student("theodor_tager").
student("carina_ullrich").
student("laura_ungruhe").
student("indira_vardar").
student("joel_vardi-wald").
student("ennio_vogel").
student("theresa_vorbeck").
student("suna_wachendorfer").
student("willem_wegner").
student("willem_wegner").
student("willem_wegner").
student("johann_weist").
student("nelly_weißenberger").
student("felix_weißenberger").
student("ella_welter").
student("anton_wieland").
student("falk_wilde").
student("jannes_winkelnkemper").
student("jannes_winkelnkemper").
student("oskar_wolf").
student("junus_wostrak").
student("mitja_wurfel").
student("ida_zellbeck").
student("milan_zeug").
student("yossi_van riel").
student("richard_von bodelschwingh").
student("josephine_von hasselbach").

company("Bundesministerium für Wirtschaft und Energie").
capacity("Bundesministerium für Wirtschaft und Energie",20).
company_day("Bundesministerium für Wirtschaft und Energie",1).
company("Amtsgericht Kreuzberg").
capacity("Amtsgericht Kreuzberg",15).
company_day("Amtsgericht Kreuzberg",1).
company("BSR").
capacity("BSR",20).
company_day("BSR",1).
company("Urbaner Waldgarten Britz").
capacity("Urbaner Waldgarten Britz",15).
company_day("Urbaner Waldgarten Britz",1).
company("Bundesministerium für Wirtschaft und Energie").
capacity("Bundesministerium für Wirtschaft und Energie",20).
company_day("Bundesministerium für Wirtschaft und Energie",2).
company("Hilton").
capacity("Hilton",20).
company_day("Hilton",2).
company("rebuy").
capacity("rebuy",15).
company_day("rebuy",2).
company("Tropen Verlag").
capacity("Tropen Verlag",15).
company_day("Tropen Verlag",2).

pref("elias_alleweldt","Bundesministerium für Wirtschaft und Energie",5).
pref("elias_alleweldt","Hilton",2).
pref("elias_alleweldt","rebuy",4).
pref("elias_alleweldt","Tropen Verlag",1).
pref("elias_alleweldt","SolarZentrum",5).
pref("nahla_awlakpui","Bundesministerium für Wirtschaft und Energie",5).
pref("nahla_awlakpui","Hilton",1).
pref("nahla_awlakpui","rebuy",3).
pref("nahla_awlakpui","Tropen Verlag",4).
pref("nahla_awlakpui","SolarZentrum",5).
pref("tilda_blum","Bundesministerium für Wirtschaft und Energie",5).
pref("tilda_blum","Hilton",1).
pref("tilda_blum","rebuy",4).
pref("tilda_blum","Tropen Verlag",3).
pref("tilda_blum","SolarZentrum",5).
pref("jella_braune","Bundesministerium für Wirtschaft und Energie",5).
pref("jella_braune","Hilton",1).
pref("jella_braune","rebuy",3).
pref("jella_braune","Tropen Verlag",4).
pref("jella_braune","SolarZentrum",5).
pref("levi_caspary","Amtsgericht Kreuzberg",5).
pref("levi_caspary","Bundesministerium für Wirtschaft und Energie",4).
pref("levi_caspary","BSR",1).
pref("levi_caspary","Urbaner Waldgarten Britz",4).
pref("grace_eckert-kok","Bundesministerium für Wirtschaft und Energie",5).
pref("grace_eckert-kok","Hilton",3).
pref("grace_eckert-kok","rebuy",3).
pref("grace_eckert-kok","Tropen Verlag",1).
pref("grace_eckert-kok","SolarZentrum",3).
pref("charlotte_eschen","Amtsgericht Kreuzberg",1).
pref("charlotte_eschen","Bundesministerium für Wirtschaft und Energie",2).
pref("charlotte_eschen","BSR",4).
pref("charlotte_eschen","Urbaner Waldgarten Britz",5).
pref("valentin_frenzel","Bundesministerium für Wirtschaft und Energie",5).
pref("valentin_frenzel","Hilton",1).
pref("valentin_frenzel","rebuy",5).
pref("valentin_frenzel","Tropen Verlag",4).
pref("valentin_frenzel","SolarZentrum",4).
pref("selma_gerardu","Bundesministerium für Wirtschaft und Energie",2).
pref("selma_gerardu","Hilton",3).
pref("selma_gerardu","rebuy",2).
pref("selma_gerardu","Tropen Verlag",3).
pref("selma_gerardu","SolarZentrum",3).
pref("vid_grochola","Amtsgericht Kreuzberg",1).
pref("vid_grochola","Bundesministerium für Wirtschaft und Energie",1).
pref("vid_grochola","BSR",5).
pref("vid_grochola","Urbaner Waldgarten Britz",5).
pref("melih_halicioglu","Bundesministerium für Wirtschaft und Energie",5).
pref("melih_halicioglu","Hilton",5).
pref("melih_halicioglu","rebuy",5).
pref("melih_halicioglu","Tropen Verlag",1).
pref("melih_halicioglu","SolarZentrum",5).
pref("jonathan_hampf","Bundesministerium für Wirtschaft und Energie",4).
pref("jonathan_hampf","Hilton",1).
pref("jonathan_hampf","rebuy",5).
pref("jonathan_hampf","Tropen Verlag",4).
pref("jonathan_hampf","SolarZentrum",5).
pref("ivo_hennig-lee","Amtsgericht Kreuzberg",1).
pref("ivo_hennig-lee","Bundesministerium für Wirtschaft und Energie",5).
pref("ivo_hennig-lee","BSR",3).
pref("ivo_hennig-lee","Urbaner Waldgarten Britz",5).
pref("kuno_hennig-lee","Amtsgericht Kreuzberg",1).
pref("kuno_hennig-lee","Bundesministerium für Wirtschaft und Energie",5).
pref("kuno_hennig-lee","BSR",3).
pref("kuno_hennig-lee","Urbaner Waldgarten Britz",5).
pref("ilsa_jahn","Amtsgericht Kreuzberg",1).
pref("ilsa_jahn","Bundesministerium für Wirtschaft und Energie",1).
pref("ilsa_jahn","BSR",5).
pref("ilsa_jahn","Urbaner Waldgarten Britz",1).
pref("maja_lehmann","Amtsgericht Kreuzberg",1).
pref("maja_lehmann","Bundesministerium für Wirtschaft und Energie",3).
pref("maja_lehmann","BSR",5).
pref("maja_lehmann","Urbaner Waldgarten Britz",5).
pref("nicolo_lustenberger","Amtsgericht Kreuzberg",4).
pref("nicolo_lustenberger","Bundesministerium für Wirtschaft und Energie",3).
pref("nicolo_lustenberger","BSR",3).
pref("nicolo_lustenberger","Urbaner Waldgarten Britz",2).
pref("jakob_mathesius","Bundesministerium für Wirtschaft und Energie",3).
pref("jakob_mathesius","Hilton",4).
pref("jakob_mathesius","rebuy",1).
pref("jakob_mathesius","Tropen Verlag",4).
pref("jakob_mathesius","SolarZentrum",3).
pref("jakob_mathesius","Bundesministerium für Wirtschaft und Energie",3).
pref("jakob_mathesius","Hilton",4).
pref("jakob_mathesius","rebuy",1).
pref("jakob_mathesius","Tropen Verlag",4).
pref("jakob_mathesius","SolarZentrum",3).
pref("jakob_mathesius","Bundesministerium für Wirtschaft und Energie",3).
pref("jakob_mathesius","Hilton",4).
pref("jakob_mathesius","rebuy",1).
pref("jakob_mathesius","Tropen Verlag",4).
pref("jakob_mathesius","SolarZentrum",3).
pref("felix_meyer","Bundesministerium für Wirtschaft und Energie",3).
pref("felix_meyer","Hilton",3).
pref("felix_meyer","rebuy",3).
pref("felix_meyer","Tropen Verlag",3).
pref("felix_meyer","SolarZentrum",3).
pref("felix_meyer","Bundesministerium für Wirtschaft und Energie",3).
pref("felix_meyer","Hilton",3).
pref("felix_meyer","rebuy",3).
pref("felix_meyer","Tropen Verlag",1).
pref("felix_meyer","SolarZentrum",3).
pref("marthe_mittelstaedt","Amtsgericht Kreuzberg",5).
pref("marthe_mittelstaedt","Bundesministerium für Wirtschaft und Energie",5).
pref("marthe_mittelstaedt","BSR",5).
pref("marthe_mittelstaedt","Urbaner Waldgarten Britz",1).
pref("jorin_mogge","Bundesministerium für Wirtschaft und Energie",2).
pref("jorin_mogge","Hilton",5).
pref("jorin_mogge","rebuy",3).
pref("jorin_mogge","Tropen Verlag",5).
pref("jorin_mogge","SolarZentrum",5).
pref("steffen_nestle","Bundesministerium für Wirtschaft und Energie",4).
pref("steffen_nestle","Hilton",5).
pref("steffen_nestle","rebuy",1).
pref("steffen_nestle","Tropen Verlag",3).
pref("steffen_nestle","SolarZentrum",3).
pref("polly_orbitz","Amtsgericht Kreuzberg",5).
pref("polly_orbitz","Bundesministerium für Wirtschaft und Energie",5).
pref("polly_orbitz","BSR",5).
pref("polly_orbitz","Urbaner Waldgarten Britz",1).
pref("lionel_paulos nunes","Bundesministerium für Wirtschaft und Energie",1).
pref("lionel_paulos nunes","Hilton",5).
pref("lionel_paulos nunes","rebuy",3).
pref("lionel_paulos nunes","Tropen Verlag",5).
pref("lionel_paulos nunes","SolarZentrum",5).
pref("lukas_poppelbaum","Bundesministerium für Wirtschaft und Energie",5).
pref("lukas_poppelbaum","Hilton",5).
pref("lukas_poppelbaum","rebuy",1).
pref("lukas_poppelbaum","Tropen Verlag",4).
pref("lukas_poppelbaum","SolarZentrum",4).
pref("emil_rettig","Bundesministerium für Wirtschaft und Energie",2).
pref("emil_rettig","Hilton",1).
pref("emil_rettig","rebuy",5).
pref("emil_rettig","Tropen Verlag",1).
pref("emil_rettig","SolarZentrum",1).
pref("friedrich_riesenhuber","Bundesministerium für Wirtschaft und Energie",4).
pref("friedrich_riesenhuber","Hilton",1).
pref("friedrich_riesenhuber","rebuy",2).
pref("friedrich_riesenhuber","Tropen Verlag",5).
pref("friedrich_riesenhuber","SolarZentrum",2).
pref("kiana_rossi","Amtsgericht Kreuzberg",1).
pref("kiana_rossi","Bundesministerium für Wirtschaft und Energie",4).
pref("kiana_rossi","BSR",4).
pref("kiana_rossi","Urbaner Waldgarten Britz",3).
pref("fanny_schlocker","Bundesministerium für Wirtschaft und Energie",1).
pref("fanny_schlocker","Hilton",2).
pref("fanny_schlocker","rebuy",3).
pref("fanny_schlocker","Tropen Verlag",2).
pref("fanny_schlocker","SolarZentrum",5).
pref("zoe_simon-untz","Amtsgericht Kreuzberg",5).
pref("zoe_simon-untz","Bundesministerium für Wirtschaft und Energie",1).
pref("zoe_simon-untz","BSR",5).
pref("zoe_simon-untz","Urbaner Waldgarten Britz",5).
pref("indira_vardar","Amtsgericht Kreuzberg",1).
pref("indira_vardar","Bundesministerium für Wirtschaft und Energie",4).
pref("indira_vardar","BSR",3).
pref("indira_vardar","Urbaner Waldgarten Britz",2).
pref("theresa_vorbeck","Bundesministerium für Wirtschaft und Energie",5).
pref("theresa_vorbeck","Hilton",1).
pref("theresa_vorbeck","rebuy",3).
pref("theresa_vorbeck","Tropen Verlag",5).
pref("theresa_vorbeck","SolarZentrum",5).
pref("willem_wegner","Bundesministerium für Wirtschaft und Energie",5).
pref("willem_wegner","Hilton",5).
pref("willem_wegner","rebuy",5).
pref("willem_wegner","Tropen Verlag",1).
pref("willem_wegner","SolarZentrum",5).
pref("willem_wegner","Bundesministerium für Wirtschaft und Energie",1).
pref("willem_wegner","Hilton",1).
pref("willem_wegner","rebuy",1).
pref("willem_wegner","Tropen Verlag",5).
pref("willem_wegner","SolarZentrum",1).
pref("willem_wegner","Bundesministerium für Wirtschaft und Energie",1).
pref("willem_wegner","Hilton",2).
pref("willem_wegner","rebuy",3).
pref("willem_wegner","Tropen Verlag",5).
pref("willem_wegner","SolarZentrum",2).
pref("nelly_weißenberger","Amtsgericht Kreuzberg",1).
pref("nelly_weißenberger","Bundesministerium für Wirtschaft und Energie",3).
pref("nelly_weißenberger","BSR",5).
pref("nelly_weißenberger","Urbaner Waldgarten Britz",5).
pref("felix_weißenberger","Bundesministerium für Wirtschaft und Energie",3).
pref("felix_weißenberger","Hilton",1).
pref("felix_weißenberger","rebuy",4).
pref("felix_weißenberger","Tropen Verlag",5).
pref("felix_weißenberger","SolarZentrum",4).
pref("ella_welter","Bundesministerium für Wirtschaft und Energie",2).
pref("ella_welter","Hilton",5).
pref("ella_welter","rebuy",3).
pref("ella_welter","Tropen Verlag",2).
pref("ella_welter","SolarZentrum",3).
pref("falk_wilde","Bundesministerium für Wirtschaft und Energie",4).
pref("falk_wilde","Hilton",3).
pref("falk_wilde","rebuy",1).
pref("falk_wilde","Tropen Verlag",5).
pref("falk_wilde","SolarZentrum",5).
pref("jannes_winkelnkemper","Bundesministerium für Wirtschaft und Energie",3).
pref("jannes_winkelnkemper","Hilton",4).
pref("jannes_winkelnkemper","rebuy",1).
pref("jannes_winkelnkemper","Tropen Verlag",4).
pref("jannes_winkelnkemper","SolarZentrum",3).
pref("jannes_winkelnkemper","Bundesministerium für Wirtschaft und Energie",3).
pref("jannes_winkelnkemper","Hilton",4).
pref("jannes_winkelnkemper","rebuy",1).
pref("jannes_winkelnkemper","Tropen Verlag",4).
pref("jannes_winkelnkemper","SolarZentrum",3).
pref("mitja_wurfel","Bundesministerium für Wirtschaft und Energie",4).
pref("mitja_wurfel","Hilton",3).
pref("mitja_wurfel","rebuy",1).
pref("mitja_wurfel","Tropen Verlag",4).
pref("mitja_wurfel","SolarZentrum",4).
pref("ida_zellbeck","Bundesministerium für Wirtschaft und Energie",5).
pref("ida_zellbeck","Hilton",1).
pref("ida_zellbeck","rebuy",2).
pref("ida_zellbeck","Tropen Verlag",2).
pref("ida_zellbeck","SolarZentrum",5).